Solver command line: ['C:\\Program Files\\IBM\\ILOG\\CPLEX_Studio2211\\cplex\\bin\\x64_win64\\cplex.exe']


Welcome to IBM(R) ILOG(R) CPLEX(R) Interactive Optimizer 22.1.1.0
  with Simplex, Mixed Integer & Barrier Optimizers
5725-A06 5725-A29 5724-Y48 5724-Y49 5724-Y54 5724-Y55 5655-Y21
Copyright IBM Corp. 1988, 2022.  All Rights Reserved.

Type 'help' for a list of available commands.
Type 'help' followed by a command name for more
information on commands.

CPLEX> Logfile 'cplex.log' closed.
Logfile 'C:\Users\wangy\Documents\GitHub\re_optimization\result_site_specific\tmp7oltwe0d.cplex.log' open.
CPLEX> Problem 'C:\Users\wangy\Documents\GitHub\re_optimization\result_site_specific\tmp1u3y_69j.pyomo.lp' read.
Read time = 0.33 sec. (9.13 ticks)
CPLEX> Problem name         : C:\Users\wangy\Documents\GitHub\re_optimization\result_site_specific\tmp1u3y_69j.pyomo.lp
Objective sense      : Minimize
Variables            :   65769  [Nneg: 35068,  Free: 8792,  Binary: 9,
                                 Other: 21900]
Objective nonzeros   :      17
Linear constraints   :   87665  [Less: 46741,  Greater: 5,  Equal: 40919]
  Nonzeros           :  225059
  RHS nonzeros       :    3565

Variables            : Min LB: 0.000000         Max UB: 1.000000       
Objective nonzeros   : Min   : 1.000000         Max   : 1.000000       
Linear constraints   :
  Nonzeros           : Min   : 0.0009069348     Max   : 100000.0       
  RHS nonzeros       : Min   : 0.1040000        Max   : 100000.0       
CPLEX> Version identifier: 22.1.1.0 | 2022-11-27 | 9160aff4d
Tried aggregator 3 times.
MIP Presolve eliminated 53498 rows and 33056 columns.
Aggregator did 10437 substitutions.
Reduced MIP has 23730 rows, 22276 columns, and 71043 nonzeros.
Reduced MIP has 5 binaries, 0 generals, 0 SOSs, and 0 indicators.
Presolve time = 0.25 sec. (226.04 ticks)
Found incumbent of value 265522.473753 after 0.36 sec. (319.71 ticks)
Probing time = 0.01 sec. (1.24 ticks)
Tried aggregator 1 time.
Detecting symmetries...
Reduced MIP has 23730 rows, 22276 columns, and 71043 nonzeros.
Reduced MIP has 5 binaries, 0 generals, 0 SOSs, and 0 indicators.
Presolve time = 0.05 sec. (45.87 ticks)
Probing time = 0.01 sec. (1.15 ticks)
MIP emphasis: balance optimality and feasibility.
MIP search method: dynamic search.
Parallel mode: deterministic, using up to 16 threads.
Root relaxation solution time = 1.56 sec. (749.45 ticks)

        Nodes                                         Cuts/
   Node  Left     Objective  IInf  Best Integer    Best Bound    ItCnt     Gap

*     0+    0                       265522.4738    -7138.7450           102.69%
      0     0     5168.1546     1   265522.4738     5168.1546       54   98.05%
*     0+    0                         6772.8439     5168.1546            23.69%
*     0+    0                         5724.8184     5168.1546             9.72%
      0     0        cutoff           5724.8184                    594    0.00%
Elapsed time = 2.42 sec. (1579.60 ticks, tree = 0.01 MB, solutions = 3)

Root node processing (before b&c):
  Real time             =    2.42 sec. (1582.76 ticks)
Parallel b&c, 16 threads:
  Real time             =    0.00 sec. (0.00 ticks)
  Sync time (average)   =    0.00 sec.
  Wait time (average)   =    0.00 sec.
                          ------------
Total (root+branch&cut) =    2.42 sec. (1582.76 ticks)

Solution pool: 3 solutions saved.

MIP - Integer optimal solution:  Objective =  5.7248183956e+03
Solution time =    2.42 sec.  Iterations = 594  Nodes = 0
Deterministic time = 1582.95 ticks  (653.57 ticks/sec)

CPLEX> Incumbent solution written to file 'C:\Users\wangy\Documents\GitHub\re_optimization\result_site_specific\tmpaewqdqvw.cplex.sol'.
CPLEX> 
